\ Model Optimal_decision_tree
\ LP format - for model browsing. Use MPS format to capture full model detail.
Minimize
  0 a[0,1] + 0 a[0,2] + 0 a[0,3] + 0 a[0,4] + 0 a[0,5] + 0 a[0,6] + 0 a[0,7]
   + 0 a[1,1] + 0 a[1,2] + 0 a[1,3] + 0 a[1,4] + 0 a[1,5] + 0 a[1,6]
   + 0 a[1,7] + 0 b[1] + 0 b[2] + 0 b[3] + 0 b[4] + 0 b[5] + 0 b[6]
   + 0 b[7] + 0 c[8,0] + 0 c[8,1] + 0 c[9,0] + 0 c[9,1] + 0 c[10,0]
   + 0 c[10,1] + 0 c[11,0] + 0 c[11,1] + 0 c[12,0] + 0 c[12,1] + 0 c[13,0]
   + 0 c[13,1] + 0 c[14,0] + 0 c[14,1] + 0 c[15,0] + 0 c[15,1] + e[0]
   + e[1] + e[2] + e[3] + e[4] + e[5] + e[6] + e[7] + e[8] + e[9] + e[10]
   + e[11] + e[12] + e[13] + e[14] + e[15] + e[16] + e[17] + e[18] + e[19]
   + e[20] + e[21] + e[22] + e[23] + e[24] + e[25] + e[26] + e[27] + e[28]
   + e[29] + e[30] + e[31] + e[32] + e[33] + e[34] + e[35] + e[36] + e[37]
   + e[38] + e[39] + e[40] + e[41] + e[42] + e[43] + e[44] + e[45] + e[46]
   + e[47] + e[48] + e[49] + e[50] + e[51] + e[52] + e[53] + e[54] + e[55]
   + e[56] + e[57] + e[58] + e[59] + e[60] + e[61] + e[62] + e[63] + e[64]
   + e[65] + e[66] + e[67] + e[68] + e[69] + e[70] + e[71] + e[72] + e[73]
   + e[74] + e[75] + e[76] + e[77] + e[78] + e[79] + e[80] + e[81] + e[82]
   + e[83] + e[84] + e[85] + e[86] + e[87] + e[88] + e[89] + e[90] + e[91]
   + e[92] + e[93] + e[94] + e[95] + e[96] + e[97] + e[98] + e[99]
   + 0 f[0,1] + 0 f[0,2] + 0 f[0,3] + 0 f[0,4] + 0 f[0,5] + 0 f[0,6]
   + 0 f[0,7] + 0 f[1,1] + 0 f[1,2] + 0 f[1,3] + 0 f[1,4] + 0 f[1,5]
   + 0 f[1,6] + 0 f[1,7] + 0 f[2,1] + 0 f[2,2] + 0 f[2,3] + 0 f[2,4]
   + 0 f[2,5] + 0 f[2,6] + 0 f[2,7] + 0 f[3,1] + 0 f[3,2] + 0 f[3,3]
   + 0 f[3,4] + 0 f[3,5] + 0 f[3,6] + 0 f[3,7] + 0 f[4,1] + 0 f[4,2]
   + 0 f[4,3] + 0 f[4,4] + 0 f[4,5] + 0 f[4,6] + 0 f[4,7] + 0 f[5,1]
   + 0 f[5,2] + 0 f[5,3] + 0 f[5,4] + 0 f[5,5] + 0 f[5,6] + 0 f[5,7]
   + 0 f[6,1] + 0 f[6,2] + 0 f[6,3] + 0 f[6,4] + 0 f[6,5] + 0 f[6,6]
   + 0 f[6,7] + 0 f[7,1] + 0 f[7,2] + 0 f[7,3] + 0 f[7,4] + 0 f[7,5]
   + 0 f[7,6] + 0 f[7,7] + 0 f[8,1] + 0 f[8,2] + 0 f[8,3] + 0 f[8,4]
   + 0 f[8,5] + 0 f[8,6] + 0 f[8,7] + 0 f[9,1] + 0 f[9,2] + 0 f[9,3]
   + 0 f[9,4] + 0 f[9,5] + 0 f[9,6] + 0 f[9,7] + 0 f[10,1] + 0 f[10,2]
   + 0 f[10,3] + 0 f[10,4] + 0 f[10,5] + 0 f[10,6] + 0 f[10,7] + 0 f[11,1]
   + 0 f[11,2] + 0 f[11,3] + 0 f[11,4] + 0 f[11,5] + 0 f[11,6] + 0 f[11,7]
   + 0 f[12,1] + 0 f[12,2] + 0 f[12,3] + 0 f[12,4] + 0 f[12,5] + 0 f[12,6]
   + 0 f[12,7] + 0 f[13,1] + 0 f[13,2] + 0 f[13,3] + 0 f[13,4] + 0 f[13,5]
   + 0 f[13,6] + 0 f[13,7] + 0 f[14,1] + 0 f[14,2] + 0 f[14,3] + 0 f[14,4]
   + 0 f[14,5] + 0 f[14,6] + 0 f[14,7] + 0 f[15,1] + 0 f[15,2] + 0 f[15,3]
   + 0 f[15,4] + 0 f[15,5] + 0 f[15,6] + 0 f[15,7] + 0 f[16,1] + 0 f[16,2]
   + 0 f[16,3] + 0 f[16,4] + 0 f[16,5] + 0 f[16,6] + 0 f[16,7] + 0 f[17,1]
   + 0 f[17,2] + 0 f[17,3] + 0 f[17,4] + 0 f[17,5] + 0 f[17,6] + 0 f[17,7]
   + 0 f[18,1] + 0 f[18,2] + 0 f[18,3] + 0 f[18,4] + 0 f[18,5] + 0 f[18,6]
   + 0 f[18,7] + 0 f[19,1] + 0 f[19,2] + 0 f[19,3] + 0 f[19,4] + 0 f[19,5]
   + 0 f[19,6] + 0 f[19,7] + 0 f[20,1] + 0 f[20,2] + 0 f[20,3] + 0 f[20,4]
   + 0 f[20,5] + 0 f[20,6] + 0 f[20,7] + 0 f[21,1] + 0 f[21,2] + 0 f[21,3]
   + 0 f[21,4] + 0 f[21,5] + 0 f[21,6] + 0 f[21,7] + 0 f[22,1] + 0 f[22,2]
   + 0 f[22,3] + 0 f[22,4] + 0 f[22,5] + 0 f[22,6] + 0 f[22,7] + 0 f[23,1]
   + 0 f[23,2] + 0 f[23,3] + 0 f[23,4] + 0 f[23,5] + 0 f[23,6] + 0 f[23,7]
   + 0 f[24,1] + 0 f[24,2] + 0 f[24,3] + 0 f[24,4] + 0 f[24,5] + 0 f[24,6]
   + 0 f[24,7] + 0 f[25,1] + 0 f[25,2] + 0 f[25,3] + 0 f[25,4] + 0 f[25,5]
   + 0 f[25,6] + 0 f[25,7] + 0 f[26,1] + 0 f[26,2] + 0 f[26,3] + 0 f[26,4]
   + 0 f[26,5] + 0 f[26,6] + 0 f[26,7] + 0 f[27,1] + 0 f[27,2] + 0 f[27,3]
   + 0 f[27,4] + 0 f[27,5] + 0 f[27,6] + 0 f[27,7] + 0 f[28,1] + 0 f[28,2]
   + 0 f[28,3] + 0 f[28,4] + 0 f[28,5] + 0 f[28,6] + 0 f[28,7] + 0 f[29,1]
   + 0 f[29,2] + 0 f[29,3] + 0 f[29,4] + 0 f[29,5] + 0 f[29,6] + 0 f[29,7]
   + 0 f[30,1] + 0 f[30,2] + 0 f[30,3] + 0 f[30,4] + 0 f[30,5] + 0 f[30,6]
   + 0 f[30,7] + 0 f[31,1] + 0 f[31,2] + 0 f[31,3] + 0 f[31,4] + 0 f[31,5]
   + 0 f[31,6] + 0 f[31,7] + 0 f[32,1] + 0 f[32,2] + 0 f[32,3] + 0 f[32,4]
   + 0 f[32,5] + 0 f[32,6] + 0 f[32,7] + 0 f[33,1] + 0 f[33,2] + 0 f[33,3]
   + 0 f[33,4] + 0 f[33,5] + 0 f[33,6] + 0 f[33,7] + 0 f[34,1] + 0 f[34,2]
   + 0 f[34,3] + 0 f[34,4] + 0 f[34,5] + 0 f[34,6] + 0 f[34,7] + 0 f[35,1]
   + 0 f[35,2] + 0 f[35,3] + 0 f[35,4] + 0 f[35,5] + 0 f[35,6] + 0 f[35,7]
   + 0 f[36,1] + 0 f[36,2] + 0 f[36,3] + 0 f[36,4] + 0 f[36,5] + 0 f[36,6]
   + 0 f[36,7] + 0 f[37,1] + 0 f[37,2] + 0 f[37,3] + 0 f[37,4] + 0 f[37,5]
   + 0 f[37,6] + 0 f[37,7] + 0 f[38,1] + 0 f[38,2] + 0 f[38,3] + 0 f[38,4]
   + 0 f[38,5] + 0 f[38,6] + 0 f[38,7] + 0 f[39,1] + 0 f[39,2] + 0 f[39,3]
   + 0 f[39,4] + 0 f[39,5] + 0 f[39,6] + 0 f[39,7] + 0 f[40,1] + 0 f[40,2]
   + 0 f[40,3] + 0 f[40,4] + 0 f[40,5] + 0 f[40,6] + 0 f[40,7] + 0 f[41,1]
   + 0 f[41,2] + 0 f[41,3] + 0 f[41,4] + 0 f[41,5] + 0 f[41,6] + 0 f[41,7]
   + 0 f[42,1] + 0 f[42,2] + 0 f[42,3] + 0 f[42,4] + 0 f[42,5] + 0 f[42,6]
   + 0 f[42,7] + 0 f[43,1] + 0 f[43,2] + 0 f[43,3] + 0 f[43,4] + 0 f[43,5]
   + 0 f[43,6] + 0 f[43,7] + 0 f[44,1] + 0 f[44,2] + 0 f[44,3] + 0 f[44,4]
   + 0 f[44,5] + 0 f[44,6] + 0 f[44,7] + 0 f[45,1] + 0 f[45,2] + 0 f[45,3]
   + 0 f[45,4] + 0 f[45,5] + 0 f[45,6] + 0 f[45,7] + 0 f[46,1] + 0 f[46,2]
   + 0 f[46,3] + 0 f[46,4] + 0 f[46,5] + 0 f[46,6] + 0 f[46,7] + 0 f[47,1]
   + 0 f[47,2] + 0 f[47,3] + 0 f[47,4] + 0 f[47,5] + 0 f[47,6] + 0 f[47,7]
   + 0 f[48,1] + 0 f[48,2] + 0 f[48,3] + 0 f[48,4] + 0 f[48,5] + 0 f[48,6]
   + 0 f[48,7] + 0 f[49,1] + 0 f[49,2] + 0 f[49,3] + 0 f[49,4] + 0 f[49,5]
   + 0 f[49,6] + 0 f[49,7] + 0 f[50,1] + 0 f[50,2] + 0 f[50,3] + 0 f[50,4]
   + 0 f[50,5] + 0 f[50,6] + 0 f[50,7] + 0 f[51,1] + 0 f[51,2] + 0 f[51,3]
   + 0 f[51,4] + 0 f[51,5] + 0 f[51,6] + 0 f[51,7] + 0 f[52,1] + 0 f[52,2]
   + 0 f[52,3] + 0 f[52,4] + 0 f[52,5] + 0 f[52,6] + 0 f[52,7] + 0 f[53,1]
   + 0 f[53,2] + 0 f[53,3] + 0 f[53,4] + 0 f[53,5] + 0 f[53,6] + 0 f[53,7]
   + 0 f[54,1] + 0 f[54,2] + 0 f[54,3] + 0 f[54,4] + 0 f[54,5] + 0 f[54,6]
   + 0 f[54,7] + 0 f[55,1] + 0 f[55,2] + 0 f[55,3] + 0 f[55,4] + 0 f[55,5]
   + 0 f[55,6] + 0 f[55,7] + 0 f[56,1] + 0 f[56,2] + 0 f[56,3] + 0 f[56,4]
   + 0 f[56,5] + 0 f[56,6] + 0 f[56,7] + 0 f[57,1] + 0 f[57,2] + 0 f[57,3]
   + 0 f[57,4] + 0 f[57,5] + 0 f[57,6] + 0 f[57,7] + 0 f[58,1] + 0 f[58,2]
   + 0 f[58,3] + 0 f[58,4] + 0 f[58,5] + 0 f[58,6] + 0 f[58,7] + 0 f[59,1]
   + 0 f[59,2] + 0 f[59,3] + 0 f[59,4] + 0 f[59,5] + 0 f[59,6] + 0 f[59,7]
   + 0 f[60,1] + 0 f[60,2] + 0 f[60,3] + 0 f[60,4] + 0 f[60,5] + 0 f[60,6]
   + 0 f[60,7] + 0 f[61,1] + 0 f[61,2] + 0 f[61,3] + 0 f[61,4] + 0 f[61,5]
   + 0 f[61,6] + 0 f[61,7] + 0 f[62,1] + 0 f[62,2] + 0 f[62,3] + 0 f[62,4]
   + 0 f[62,5] + 0 f[62,6] + 0 f[62,7] + 0 f[63,1] + 0 f[63,2] + 0 f[63,3]
   + 0 f[63,4] + 0 f[63,5] + 0 f[63,6] + 0 f[63,7] + 0 f[64,1] + 0 f[64,2]
   + 0 f[64,3] + 0 f[64,4] + 0 f[64,5] + 0 f[64,6] + 0 f[64,7] + 0 f[65,1]
   + 0 f[65,2] + 0 f[65,3] + 0 f[65,4] + 0 f[65,5] + 0 f[65,6] + 0 f[65,7]
   + 0 f[66,1] + 0 f[66,2] + 0 f[66,3] + 0 f[66,4] + 0 f[66,5] + 0 f[66,6]
   + 0 f[66,7] + 0 f[67,1] + 0 f[67,2] + 0 f[67,3] + 0 f[67,4] + 0 f[67,5]
   + 0 f[67,6] + 0 f[67,7] + 0 f[68,1] + 0 f[68,2] + 0 f[68,3] + 0 f[68,4]
   + 0 f[68,5] + 0 f[68,6] + 0 f[68,7] + 0 f[69,1] + 0 f[69,2] + 0 f[69,3]
   + 0 f[69,4] + 0 f[69,5] + 0 f[69,6] + 0 f[69,7] + 0 f[70,1] + 0 f[70,2]
   + 0 f[70,3] + 0 f[70,4] + 0 f[70,5] + 0 f[70,6] + 0 f[70,7] + 0 f[71,1]
   + 0 f[71,2] + 0 f[71,3] + 0 f[71,4] + 0 f[71,5] + 0 f[71,6] + 0 f[71,7]
   + 0 f[72,1] + 0 f[72,2] + 0 f[72,3] + 0 f[72,4] + 0 f[72,5] + 0 f[72,6]
   + 0 f[72,7] + 0 f[73,1] + 0 f[73,2] + 0 f[73,3] + 0 f[73,4] + 0 f[73,5]
   + 0 f[73,6] + 0 f[73,7] + 0 f[74,1] + 0 f[74,2] + 0 f[74,3] + 0 f[74,4]
   + 0 f[74,5] + 0 f[74,6] + 0 f[74,7] + 0 f[75,1] + 0 f[75,2] + 0 f[75,3]
   + 0 f[75,4] + 0 f[75,5] + 0 f[75,6] + 0 f[75,7] + 0 f[76,1] + 0 f[76,2]
   + 0 f[76,3] + 0 f[76,4] + 0 f[76,5] + 0 f[76,6] + 0 f[76,7] + 0 f[77,1]
   + 0 f[77,2] + 0 f[77,3] + 0 f[77,4] + 0 f[77,5] + 0 f[77,6] + 0 f[77,7]
   + 0 f[78,1] + 0 f[78,2] + 0 f[78,3] + 0 f[78,4] + 0 f[78,5] + 0 f[78,6]
   + 0 f[78,7] + 0 f[79,1] + 0 f[79,2] + 0 f[79,3] + 0 f[79,4] + 0 f[79,5]
   + 0 f[79,6] + 0 f[79,7] + 0 f[80,1] + 0 f[80,2] + 0 f[80,3] + 0 f[80,4]
   + 0 f[80,5] + 0 f[80,6] + 0 f[80,7] + 0 f[81,1] + 0 f[81,2] + 0 f[81,3]
   + 0 f[81,4] + 0 f[81,5] + 0 f[81,6] + 0 f[81,7] + 0 f[82,1] + 0 f[82,2]
   + 0 f[82,3] + 0 f[82,4] + 0 f[82,5] + 0 f[82,6] + 0 f[82,7] + 0 f[83,1]
   + 0 f[83,2] + 0 f[83,3] + 0 f[83,4] + 0 f[83,5] + 0 f[83,6] + 0 f[83,7]
   + 0 f[84,1] + 0 f[84,2] + 0 f[84,3] + 0 f[84,4] + 0 f[84,5] + 0 f[84,6]
   + 0 f[84,7] + 0 f[85,1] + 0 f[85,2] + 0 f[85,3] + 0 f[85,4] + 0 f[85,5]
   + 0 f[85,6] + 0 f[85,7] + 0 f[86,1] + 0 f[86,2] + 0 f[86,3] + 0 f[86,4]
   + 0 f[86,5] + 0 f[86,6] + 0 f[86,7] + 0 f[87,1] + 0 f[87,2] + 0 f[87,3]
   + 0 f[87,4] + 0 f[87,5] + 0 f[87,6] + 0 f[87,7] + 0 f[88,1] + 0 f[88,2]
   + 0 f[88,3] + 0 f[88,4] + 0 f[88,5] + 0 f[88,6] + 0 f[88,7] + 0 f[89,1]
   + 0 f[89,2] + 0 f[89,3] + 0 f[89,4] + 0 f[89,5] + 0 f[89,6] + 0 f[89,7]
   + 0 f[90,1] + 0 f[90,2] + 0 f[90,3] + 0 f[90,4] + 0 f[90,5] + 0 f[90,6]
   + 0 f[90,7] + 0 f[91,1] + 0 f[91,2] + 0 f[91,3] + 0 f[91,4] + 0 f[91,5]
   + 0 f[91,6] + 0 f[91,7] + 0 f[92,1] + 0 f[92,2] + 0 f[92,3] + 0 f[92,4]
   + 0 f[92,5] + 0 f[92,6] + 0 f[92,7] + 0 f[93,1] + 0 f[93,2] + 0 f[93,3]
   + 0 f[93,4] + 0 f[93,5] + 0 f[93,6] + 0 f[93,7] + 0 f[94,1] + 0 f[94,2]
   + 0 f[94,3] + 0 f[94,4] + 0 f[94,5] + 0 f[94,6] + 0 f[94,7] + 0 f[95,1]
   + 0 f[95,2] + 0 f[95,3] + 0 f[95,4] + 0 f[95,5] + 0 f[95,6] + 0 f[95,7]
   + 0 f[96,1] + 0 f[96,2] + 0 f[96,3] + 0 f[96,4] + 0 f[96,5] + 0 f[96,6]
   + 0 f[96,7] + 0 f[97,1] + 0 f[97,2] + 0 f[97,3] + 0 f[97,4] + 0 f[97,5]
   + 0 f[97,6] + 0 f[97,7] + 0 f[98,1] + 0 f[98,2] + 0 f[98,3] + 0 f[98,4]
   + 0 f[98,5] + 0 f[98,6] + 0 f[98,7] + 0 f[99,1] + 0 f[99,2] + 0 f[99,3]
   + 0 f[99,4] + 0 f[99,5] + 0 f[99,6] + 0 f[99,7] + 0 z[0,8] + 0 z[0,9]
   + 0 z[0,10] + 0 z[0,11] + 0 z[0,12] + 0 z[0,13] + 0 z[0,14] + 0 z[0,15]
   + 0 z[1,8] + 0 z[1,9] + 0 z[1,10] + 0 z[1,11] + 0 z[1,12] + 0 z[1,13]
   + 0 z[1,14] + 0 z[1,15] + 0 z[2,8] + 0 z[2,9] + 0 z[2,10] + 0 z[2,11]
   + 0 z[2,12] + 0 z[2,13] + 0 z[2,14] + 0 z[2,15] + 0 z[3,8] + 0 z[3,9]
   + 0 z[3,10] + 0 z[3,11] + 0 z[3,12] + 0 z[3,13] + 0 z[3,14] + 0 z[3,15]
   + 0 z[4,8] + 0 z[4,9] + 0 z[4,10] + 0 z[4,11] + 0 z[4,12] + 0 z[4,13]
   + 0 z[4,14] + 0 z[4,15] + 0 z[5,8] + 0 z[5,9] + 0 z[5,10] + 0 z[5,11]
   + 0 z[5,12] + 0 z[5,13] + 0 z[5,14] + 0 z[5,15] + 0 z[6,8] + 0 z[6,9]
   + 0 z[6,10] + 0 z[6,11] + 0 z[6,12] + 0 z[6,13] + 0 z[6,14] + 0 z[6,15]
   + 0 z[7,8] + 0 z[7,9] + 0 z[7,10] + 0 z[7,11] + 0 z[7,12] + 0 z[7,13]
   + 0 z[7,14] + 0 z[7,15] + 0 z[8,8] + 0 z[8,9] + 0 z[8,10] + 0 z[8,11]
   + 0 z[8,12] + 0 z[8,13] + 0 z[8,14] + 0 z[8,15] + 0 z[9,8] + 0 z[9,9]
   + 0 z[9,10] + 0 z[9,11] + 0 z[9,12] + 0 z[9,13] + 0 z[9,14] + 0 z[9,15]
   + 0 z[10,8] + 0 z[10,9] + 0 z[10,10] + 0 z[10,11] + 0 z[10,12]
   + 0 z[10,13] + 0 z[10,14] + 0 z[10,15] + 0 z[11,8] + 0 z[11,9]
   + 0 z[11,10] + 0 z[11,11] + 0 z[11,12] + 0 z[11,13] + 0 z[11,14]
   + 0 z[11,15] + 0 z[12,8] + 0 z[12,9] + 0 z[12,10] + 0 z[12,11]
   + 0 z[12,12] + 0 z[12,13] + 0 z[12,14] + 0 z[12,15] + 0 z[13,8]
   + 0 z[13,9] + 0 z[13,10] + 0 z[13,11] + 0 z[13,12] + 0 z[13,13]
   + 0 z[13,14] + 0 z[13,15] + 0 z[14,8] + 0 z[14,9] + 0 z[14,10]
   + 0 z[14,11] + 0 z[14,12] + 0 z[14,13] + 0 z[14,14] + 0 z[14,15]
   + 0 z[15,8] + 0 z[15,9] + 0 z[15,10] + 0 z[15,11] + 0 z[15,12]
   + 0 z[15,13] + 0 z[15,14] + 0 z[15,15] + 0 z[16,8] + 0 z[16,9]
   + 0 z[16,10] + 0 z[16,11] + 0 z[16,12] + 0 z[16,13] + 0 z[16,14]
   + 0 z[16,15] + 0 z[17,8] + 0 z[17,9] + 0 z[17,10] + 0 z[17,11]
   + 0 z[17,12] + 0 z[17,13] + 0 z[17,14] + 0 z[17,15] + 0 z[18,8]
   + 0 z[18,9] + 0 z[18,10] + 0 z[18,11] + 0 z[18,12] + 0 z[18,13]
   + 0 z[18,14] + 0 z[18,15] + 0 z[19,8] + 0 z[19,9] + 0 z[19,10]
   + 0 z[19,11] + 0 z[19,12] + 0 z[19,13] + 0 z[19,14] + 0 z[19,15]
   + 0 z[20,8] + 0 z[20,9] + 0 z[20,10] + 0 z[20,11] + 0 z[20,12]
   + 0 z[20,13] + 0 z[20,14] + 0 z[20,15] + 0 z[21,8] + 0 z[21,9]
   + 0 z[21,10] + 0 z[21,11] + 0 z[21,12] + 0 z[21,13] + 0 z[21,14]
   + 0 z[21,15] + 0 z[22,8] + 0 z[22,9] + 0 z[22,10] + 0 z[22,11]
   + 0 z[22,12] + 0 z[22,13] + 0 z[22,14] + 0 z[22,15] + 0 z[23,8]
   + 0 z[23,9] + 0 z[23,10] + 0 z[23,11] + 0 z[23,12] + 0 z[23,13]
   + 0 z[23,14] + 0 z[23,15] + 0 z[24,8] + 0 z[24,9] + 0 z[24,10]
   + 0 z[24,11] + 0 z[24,12] + 0 z[24,13] + 0 z[24,14] + 0 z[24,15]
   + 0 z[25,8] + 0 z[25,9] + 0 z[25,10] + 0 z[25,11] + 0 z[25,12]
   + 0 z[25,13] + 0 z[25,14] + 0 z[25,15] + 0 z[26,8] + 0 z[26,9]
   + 0 z[26,10] + 0 z[26,11] + 0 z[26,12] + 0 z[26,13] + 0 z[26,14]
   + 0 z[26,15] + 0 z[27,8] + 0 z[27,9] + 0 z[27,10] + 0 z[27,11]
   + 0 z[27,12] + 0 z[27,13] + 0 z[27,14] + 0 z[27,15] + 0 z[28,8]
   + 0 z[28,9] + 0 z[28,10] + 0 z[28,11] + 0 z[28,12] + 0 z[28,13]
   + 0 z[28,14] + 0 z[28,15] + 0 z[29,8] + 0 z[29,9] + 0 z[29,10]
   + 0 z[29,11] + 0 z[29,12] + 0 z[29,13] + 0 z[29,14] + 0 z[29,15]
   + 0 z[30,8] + 0 z[30,9] + 0 z[30,10] + 0 z[30,11] + 0 z[30,12]
   + 0 z[30,13] + 0 z[30,14] + 0 z[30,15] + 0 z[31,8] + 0 z[31,9]
   + 0 z[31,10] + 0 z[31,11] + 0 z[31,12] + 0 z[31,13] + 0 z[31,14]
   + 0 z[31,15] + 0 z[32,8] + 0 z[32,9] + 0 z[32,10] + 0 z[32,11]
   + 0 z[32,12] + 0 z[32,13] + 0 z[32,14] + 0 z[32,15] + 0 z[33,8]
   + 0 z[33,9] + 0 z[33,10] + 0 z[33,11] + 0 z[33,12] + 0 z[33,13]
   + 0 z[33,14] + 0 z[33,15] + 0 z[34,8] + 0 z[34,9] + 0 z[34,10]
   + 0 z[34,11] + 0 z[34,12] + 0 z[34,13] + 0 z[34,14] + 0 z[34,15]
   + 0 z[35,8] + 0 z[35,9] + 0 z[35,10] + 0 z[35,11] + 0 z[35,12]
   + 0 z[35,13] + 0 z[35,14] + 0 z[35,15] + 0 z[36,8] + 0 z[36,9]
   + 0 z[36,10] + 0 z[36,11] + 0 z[36,12] + 0 z[36,13] + 0 z[36,14]
   + 0 z[36,15] + 0 z[37,8] + 0 z[37,9] + 0 z[37,10] + 0 z[37,11]
   + 0 z[37,12] + 0 z[37,13] + 0 z[37,14] + 0 z[37,15] + 0 z[38,8]
   + 0 z[38,9] + 0 z[38,10] + 0 z[38,11] + 0 z[38,12] + 0 z[38,13]
   + 0 z[38,14] + 0 z[38,15] + 0 z[39,8] + 0 z[39,9] + 0 z[39,10]
   + 0 z[39,11] + 0 z[39,12] + 0 z[39,13] + 0 z[39,14] + 0 z[39,15]
   + 0 z[40,8] + 0 z[40,9] + 0 z[40,10] + 0 z[40,11] + 0 z[40,12]
   + 0 z[40,13] + 0 z[40,14] + 0 z[40,15] + 0 z[41,8] + 0 z[41,9]
   + 0 z[41,10] + 0 z[41,11] + 0 z[41,12] + 0 z[41,13] + 0 z[41,14]
   + 0 z[41,15] + 0 z[42,8] + 0 z[42,9] + 0 z[42,10] + 0 z[42,11]
   + 0 z[42,12] + 0 z[42,13] + 0 z[42,14] + 0 z[42,15] + 0 z[43,8]
   + 0 z[43,9] + 0 z[43,10] + 0 z[43,11] + 0 z[43,12] + 0 z[43,13]
   + 0 z[43,14] + 0 z[43,15] + 0 z[44,8] + 0 z[44,9] + 0 z[44,10]
   + 0 z[44,11] + 0 z[44,12] + 0 z[44,13] + 0 z[44,14] + 0 z[44,15]
   + 0 z[45,8] + 0 z[45,9] + 0 z[45,10] + 0 z[45,11] + 0 z[45,12]
   + 0 z[45,13] + 0 z[45,14] + 0 z[45,15] + 0 z[46,8] + 0 z[46,9]
   + 0 z[46,10] + 0 z[46,11] + 0 z[46,12] + 0 z[46,13] + 0 z[46,14]
   + 0 z[46,15] + 0 z[47,8] + 0 z[47,9] + 0 z[47,10] + 0 z[47,11]
   + 0 z[47,12] + 0 z[47,13] + 0 z[47,14] + 0 z[47,15] + 0 z[48,8]
   + 0 z[48,9] + 0 z[48,10] + 0 z[48,11] + 0 z[48,12] + 0 z[48,13]
   + 0 z[48,14] + 0 z[48,15] + 0 z[49,8] + 0 z[49,9] + 0 z[49,10]
   + 0 z[49,11] + 0 z[49,12] + 0 z[49,13] + 0 z[49,14] + 0 z[49,15]
   + 0 z[50,8] + 0 z[50,9] + 0 z[50,10] + 0 z[50,11] + 0 z[50,12]
   + 0 z[50,13] + 0 z[50,14] + 0 z[50,15] + 0 z[51,8] + 0 z[51,9]
   + 0 z[51,10] + 0 z[51,11] + 0 z[51,12] + 0 z[51,13] + 0 z[51,14]
   + 0 z[51,15] + 0 z[52,8] + 0 z[52,9] + 0 z[52,10] + 0 z[52,11]
   + 0 z[52,12] + 0 z[52,13] + 0 z[52,14] + 0 z[52,15] + 0 z[53,8]
   + 0 z[53,9] + 0 z[53,10] + 0 z[53,11] + 0 z[53,12] + 0 z[53,13]
   + 0 z[53,14] + 0 z[53,15] + 0 z[54,8] + 0 z[54,9] + 0 z[54,10]
   + 0 z[54,11] + 0 z[54,12] + 0 z[54,13] + 0 z[54,14] + 0 z[54,15]
   + 0 z[55,8] + 0 z[55,9] + 0 z[55,10] + 0 z[55,11] + 0 z[55,12]
   + 0 z[55,13] + 0 z[55,14] + 0 z[55,15] + 0 z[56,8] + 0 z[56,9]
   + 0 z[56,10] + 0 z[56,11] + 0 z[56,12] + 0 z[56,13] + 0 z[56,14]
   + 0 z[56,15] + 0 z[57,8] + 0 z[57,9] + 0 z[57,10] + 0 z[57,11]
   + 0 z[57,12] + 0 z[57,13] + 0 z[57,14] + 0 z[57,15] + 0 z[58,8]
   + 0 z[58,9] + 0 z[58,10] + 0 z[58,11] + 0 z[58,12] + 0 z[58,13]
   + 0 z[58,14] + 0 z[58,15] + 0 z[59,8] + 0 z[59,9] + 0 z[59,10]
   + 0 z[59,11] + 0 z[59,12] + 0 z[59,13] + 0 z[59,14] + 0 z[59,15]
   + 0 z[60,8] + 0 z[60,9] + 0 z[60,10] + 0 z[60,11] + 0 z[60,12]
   + 0 z[60,13] + 0 z[60,14] + 0 z[60,15] + 0 z[61,8] + 0 z[61,9]
   + 0 z[61,10] + 0 z[61,11] + 0 z[61,12] + 0 z[61,13] + 0 z[61,14]
   + 0 z[61,15] + 0 z[62,8] + 0 z[62,9] + 0 z[62,10] + 0 z[62,11]
   + 0 z[62,12] + 0 z[62,13] + 0 z[62,14] + 0 z[62,15] + 0 z[63,8]
   + 0 z[63,9] + 0 z[63,10] + 0 z[63,11] + 0 z[63,12] + 0 z[63,13]
   + 0 z[63,14] + 0 z[63,15] + 0 z[64,8] + 0 z[64,9] + 0 z[64,10]
   + 0 z[64,11] + 0 z[64,12] + 0 z[64,13] + 0 z[64,14] + 0 z[64,15]
   + 0 z[65,8] + 0 z[65,9] + 0 z[65,10] + 0 z[65,11] + 0 z[65,12]
   + 0 z[65,13] + 0 z[65,14] + 0 z[65,15] + 0 z[66,8] + 0 z[66,9]
   + 0 z[66,10] + 0 z[66,11] + 0 z[66,12] + 0 z[66,13] + 0 z[66,14]
   + 0 z[66,15] + 0 z[67,8] + 0 z[67,9] + 0 z[67,10] + 0 z[67,11]
   + 0 z[67,12] + 0 z[67,13] + 0 z[67,14] + 0 z[67,15] + 0 z[68,8]
   + 0 z[68,9] + 0 z[68,10] + 0 z[68,11] + 0 z[68,12] + 0 z[68,13]
   + 0 z[68,14] + 0 z[68,15] + 0 z[69,8] + 0 z[69,9] + 0 z[69,10]
   + 0 z[69,11] + 0 z[69,12] + 0 z[69,13] + 0 z[69,14] + 0 z[69,15]
   + 0 z[70,8] + 0 z[70,9] + 0 z[70,10] + 0 z[70,11] + 0 z[70,12]
   + 0 z[70,13] + 0 z[70,14] + 0 z[70,15] + 0 z[71,8] + 0 z[71,9]
   + 0 z[71,10] + 0 z[71,11] + 0 z[71,12] + 0 z[71,13] + 0 z[71,14]
   + 0 z[71,15] + 0 z[72,8] + 0 z[72,9] + 0 z[72,10] + 0 z[72,11]
   + 0 z[72,12] + 0 z[72,13] + 0 z[72,14] + 0 z[72,15] + 0 z[73,8]
   + 0 z[73,9] + 0 z[73,10] + 0 z[73,11] + 0 z[73,12] + 0 z[73,13]
   + 0 z[73,14] + 0 z[73,15] + 0 z[74,8] + 0 z[74,9] + 0 z[74,10]
   + 0 z[74,11] + 0 z[74,12] + 0 z[74,13] + 0 z[74,14] + 0 z[74,15]
   + 0 z[75,8] + 0 z[75,9] + 0 z[75,10] + 0 z[75,11] + 0 z[75,12]
   + 0 z[75,13] + 0 z[75,14] + 0 z[75,15] + 0 z[76,8] + 0 z[76,9]
   + 0 z[76,10] + 0 z[76,11] + 0 z[76,12] + 0 z[76,13] + 0 z[76,14]
   + 0 z[76,15] + 0 z[77,8] + 0 z[77,9] + 0 z[77,10] + 0 z[77,11]
   + 0 z[77,12] + 0 z[77,13] + 0 z[77,14] + 0 z[77,15] + 0 z[78,8]
   + 0 z[78,9] + 0 z[78,10] + 0 z[78,11] + 0 z[78,12] + 0 z[78,13]
   + 0 z[78,14] + 0 z[78,15] + 0 z[79,8] + 0 z[79,9] + 0 z[79,10]
   + 0 z[79,11] + 0 z[79,12] + 0 z[79,13] + 0 z[79,14] + 0 z[79,15]
   + 0 z[80,8] + 0 z[80,9] + 0 z[80,10] + 0 z[80,11] + 0 z[80,12]
   + 0 z[80,13] + 0 z[80,14] + 0 z[80,15] + 0 z[81,8] + 0 z[81,9]
   + 0 z[81,10] + 0 z[81,11] + 0 z[81,12] + 0 z[81,13] + 0 z[81,14]
   + 0 z[81,15] + 0 z[82,8] + 0 z[82,9] + 0 z[82,10] + 0 z[82,11]
   + 0 z[82,12] + 0 z[82,13] + 0 z[82,14] + 0 z[82,15] + 0 z[83,8]
   + 0 z[83,9] + 0 z[83,10] + 0 z[83,11] + 0 z[83,12] + 0 z[83,13]
   + 0 z[83,14] + 0 z[83,15] + 0 z[84,8] + 0 z[84,9] + 0 z[84,10]
   + 0 z[84,11] + 0 z[84,12] + 0 z[84,13] + 0 z[84,14] + 0 z[84,15]
   + 0 z[85,8] + 0 z[85,9] + 0 z[85,10] + 0 z[85,11] + 0 z[85,12]
   + 0 z[85,13] + 0 z[85,14] + 0 z[85,15] + 0 z[86,8] + 0 z[86,9]
   + 0 z[86,10] + 0 z[86,11] + 0 z[86,12] + 0 z[86,13] + 0 z[86,14]
   + 0 z[86,15] + 0 z[87,8] + 0 z[87,9] + 0 z[87,10] + 0 z[87,11]
   + 0 z[87,12] + 0 z[87,13] + 0 z[87,14] + 0 z[87,15] + 0 z[88,8]
   + 0 z[88,9] + 0 z[88,10] + 0 z[88,11] + 0 z[88,12] + 0 z[88,13]
   + 0 z[88,14] + 0 z[88,15] + 0 z[89,8] + 0 z[89,9] + 0 z[89,10]
   + 0 z[89,11] + 0 z[89,12] + 0 z[89,13] + 0 z[89,14] + 0 z[89,15]
   + 0 z[90,8] + 0 z[90,9] + 0 z[90,10] + 0 z[90,11] + 0 z[90,12]
   + 0 z[90,13] + 0 z[90,14] + 0 z[90,15] + 0 z[91,8] + 0 z[91,9]
   + 0 z[91,10] + 0 z[91,11] + 0 z[91,12] + 0 z[91,13] + 0 z[91,14]
   + 0 z[91,15] + 0 z[92,8] + 0 z[92,9] + 0 z[92,10] + 0 z[92,11]
   + 0 z[92,12] + 0 z[92,13] + 0 z[92,14] + 0 z[92,15] + 0 z[93,8]
   + 0 z[93,9] + 0 z[93,10] + 0 z[93,11] + 0 z[93,12] + 0 z[93,13]
   + 0 z[93,14] + 0 z[93,15] + 0 z[94,8] + 0 z[94,9] + 0 z[94,10]
   + 0 z[94,11] + 0 z[94,12] + 0 z[94,13] + 0 z[94,14] + 0 z[94,15]
   + 0 z[95,8] + 0 z[95,9] + 0 z[95,10] + 0 z[95,11] + 0 z[95,12]
   + 0 z[95,13] + 0 z[95,14] + 0 z[95,15] + 0 z[96,8] + 0 z[96,9]
   + 0 z[96,10] + 0 z[96,11] + 0 z[96,12] + 0 z[96,13] + 0 z[96,14]
   + 0 z[96,15] + 0 z[97,8] + 0 z[97,9] + 0 z[97,10] + 0 z[97,11]
   + 0 z[97,12] + 0 z[97,13] + 0 z[97,14] + 0 z[97,15] + 0 z[98,8]
   + 0 z[98,9] + 0 z[98,10] + 0 z[98,11] + 0 z[98,12] + 0 z[98,13]
   + 0 z[98,14] + 0 z[98,15] + 0 z[99,8] + 0 z[99,9] + 0 z[99,10]
   + 0 z[99,11] + 0 z[99,12] + 0 z[99,13] + 0 z[99,14] + 0 z[99,15]
Subject To
Bounds
 b[1] <= 1
 b[2] <= 1
 b[3] <= 1
 b[4] <= 1
 b[5] <= 1
 b[6] <= 1
 b[7] <= 1
Binaries
 a[0,1] a[0,2] a[0,3] a[0,4] a[0,5] a[0,6] a[0,7] a[1,1] a[1,2] a[1,3]
 a[1,4] a[1,5] a[1,6] a[1,7] c[8,0] c[8,1] c[9,0] c[9,1] c[10,0] c[10,1]
 c[11,0] c[11,1] c[12,0] c[12,1] c[13,0] c[13,1] c[14,0] c[14,1] c[15,0]
 c[15,1] z[0,8] z[0,9] z[0,10] z[0,11] z[0,12] z[0,13] z[0,14] z[0,15]
 z[1,8] z[1,9] z[1,10] z[1,11] z[1,12] z[1,13] z[1,14] z[1,15] z[2,8]
 z[2,9] z[2,10] z[2,11] z[2,12] z[2,13] z[2,14] z[2,15] z[3,8] z[3,9]
 z[3,10] z[3,11] z[3,12] z[3,13] z[3,14] z[3,15] z[4,8] z[4,9] z[4,10]
 z[4,11] z[4,12] z[4,13] z[4,14] z[4,15] z[5,8] z[5,9] z[5,10] z[5,11]
 z[5,12] z[5,13] z[5,14] z[5,15] z[6,8] z[6,9] z[6,10] z[6,11] z[6,12]
 z[6,13] z[6,14] z[6,15] z[7,8] z[7,9] z[7,10] z[7,11] z[7,12] z[7,13]
 z[7,14] z[7,15] z[8,8] z[8,9] z[8,10] z[8,11] z[8,12] z[8,13] z[8,14]
 z[8,15] z[9,8] z[9,9] z[9,10] z[9,11] z[9,12] z[9,13] z[9,14] z[9,15]
 z[10,8] z[10,9] z[10,10] z[10,11] z[10,12] z[10,13] z[10,14] z[10,15]
 z[11,8] z[11,9] z[11,10] z[11,11] z[11,12] z[11,13] z[11,14] z[11,15]
 z[12,8] z[12,9] z[12,10] z[12,11] z[12,12] z[12,13] z[12,14] z[12,15]
 z[13,8] z[13,9] z[13,10] z[13,11] z[13,12] z[13,13] z[13,14] z[13,15]
 z[14,8] z[14,9] z[14,10] z[14,11] z[14,12] z[14,13] z[14,14] z[14,15]
 z[15,8] z[15,9] z[15,10] z[15,11] z[15,12] z[15,13] z[15,14] z[15,15]
 z[16,8] z[16,9] z[16,10] z[16,11] z[16,12] z[16,13] z[16,14] z[16,15]
 z[17,8] z[17,9] z[17,10] z[17,11] z[17,12] z[17,13] z[17,14] z[17,15]
 z[18,8] z[18,9] z[18,10] z[18,11] z[18,12] z[18,13] z[18,14] z[18,15]
 z[19,8] z[19,9] z[19,10] z[19,11] z[19,12] z[19,13] z[19,14] z[19,15]
 z[20,8] z[20,9] z[20,10] z[20,11] z[20,12] z[20,13] z[20,14] z[20,15]
 z[21,8] z[21,9] z[21,10] z[21,11] z[21,12] z[21,13] z[21,14] z[21,15]
 z[22,8] z[22,9] z[22,10] z[22,11] z[22,12] z[22,13] z[22,14] z[22,15]
 z[23,8] z[23,9] z[23,10] z[23,11] z[23,12] z[23,13] z[23,14] z[23,15]
 z[24,8] z[24,9] z[24,10] z[24,11] z[24,12] z[24,13] z[24,14] z[24,15]
 z[25,8] z[25,9] z[25,10] z[25,11] z[25,12] z[25,13] z[25,14] z[25,15]
 z[26,8] z[26,9] z[26,10] z[26,11] z[26,12] z[26,13] z[26,14] z[26,15]
 z[27,8] z[27,9] z[27,10] z[27,11] z[27,12] z[27,13] z[27,14] z[27,15]
 z[28,8] z[28,9] z[28,10] z[28,11] z[28,12] z[28,13] z[28,14] z[28,15]
 z[29,8] z[29,9] z[29,10] z[29,11] z[29,12] z[29,13] z[29,14] z[29,15]
 z[30,8] z[30,9] z[30,10] z[30,11] z[30,12] z[30,13] z[30,14] z[30,15]
 z[31,8] z[31,9] z[31,10] z[31,11] z[31,12] z[31,13] z[31,14] z[31,15]
 z[32,8] z[32,9] z[32,10] z[32,11] z[32,12] z[32,13] z[32,14] z[32,15]
 z[33,8] z[33,9] z[33,10] z[33,11] z[33,12] z[33,13] z[33,14] z[33,15]
 z[34,8] z[34,9] z[34,10] z[34,11] z[34,12] z[34,13] z[34,14] z[34,15]
 z[35,8] z[35,9] z[35,10] z[35,11] z[35,12] z[35,13] z[35,14] z[35,15]
 z[36,8] z[36,9] z[36,10] z[36,11] z[36,12] z[36,13] z[36,14] z[36,15]
 z[37,8] z[37,9] z[37,10] z[37,11] z[37,12] z[37,13] z[37,14] z[37,15]
 z[38,8] z[38,9] z[38,10] z[38,11] z[38,12] z[38,13] z[38,14] z[38,15]
 z[39,8] z[39,9] z[39,10] z[39,11] z[39,12] z[39,13] z[39,14] z[39,15]
 z[40,8] z[40,9] z[40,10] z[40,11] z[40,12] z[40,13] z[40,14] z[40,15]
 z[41,8] z[41,9] z[41,10] z[41,11] z[41,12] z[41,13] z[41,14] z[41,15]
 z[42,8] z[42,9] z[42,10] z[42,11] z[42,12] z[42,13] z[42,14] z[42,15]
 z[43,8] z[43,9] z[43,10] z[43,11] z[43,12] z[43,13] z[43,14] z[43,15]
 z[44,8] z[44,9] z[44,10] z[44,11] z[44,12] z[44,13] z[44,14] z[44,15]
 z[45,8] z[45,9] z[45,10] z[45,11] z[45,12] z[45,13] z[45,14] z[45,15]
 z[46,8] z[46,9] z[46,10] z[46,11] z[46,12] z[46,13] z[46,14] z[46,15]
 z[47,8] z[47,9] z[47,10] z[47,11] z[47,12] z[47,13] z[47,14] z[47,15]
 z[48,8] z[48,9] z[48,10] z[48,11] z[48,12] z[48,13] z[48,14] z[48,15]
 z[49,8] z[49,9] z[49,10] z[49,11] z[49,12] z[49,13] z[49,14] z[49,15]
 z[50,8] z[50,9] z[50,10] z[50,11] z[50,12] z[50,13] z[50,14] z[50,15]
 z[51,8] z[51,9] z[51,10] z[51,11] z[51,12] z[51,13] z[51,14] z[51,15]
 z[52,8] z[52,9] z[52,10] z[52,11] z[52,12] z[52,13] z[52,14] z[52,15]
 z[53,8] z[53,9] z[53,10] z[53,11] z[53,12] z[53,13] z[53,14] z[53,15]
 z[54,8] z[54,9] z[54,10] z[54,11] z[54,12] z[54,13] z[54,14] z[54,15]
 z[55,8] z[55,9] z[55,10] z[55,11] z[55,12] z[55,13] z[55,14] z[55,15]
 z[56,8] z[56,9] z[56,10] z[56,11] z[56,12] z[56,13] z[56,14] z[56,15]
 z[57,8] z[57,9] z[57,10] z[57,11] z[57,12] z[57,13] z[57,14] z[57,15]
 z[58,8] z[58,9] z[58,10] z[58,11] z[58,12] z[58,13] z[58,14] z[58,15]
 z[59,8] z[59,9] z[59,10] z[59,11] z[59,12] z[59,13] z[59,14] z[59,15]
 z[60,8] z[60,9] z[60,10] z[60,11] z[60,12] z[60,13] z[60,14] z[60,15]
 z[61,8] z[61,9] z[61,10] z[61,11] z[61,12] z[61,13] z[61,14] z[61,15]
 z[62,8] z[62,9] z[62,10] z[62,11] z[62,12] z[62,13] z[62,14] z[62,15]
 z[63,8] z[63,9] z[63,10] z[63,11] z[63,12] z[63,13] z[63,14] z[63,15]
 z[64,8] z[64,9] z[64,10] z[64,11] z[64,12] z[64,13] z[64,14] z[64,15]
 z[65,8] z[65,9] z[65,10] z[65,11] z[65,12] z[65,13] z[65,14] z[65,15]
 z[66,8] z[66,9] z[66,10] z[66,11] z[66,12] z[66,13] z[66,14] z[66,15]
 z[67,8] z[67,9] z[67,10] z[67,11] z[67,12] z[67,13] z[67,14] z[67,15]
 z[68,8] z[68,9] z[68,10] z[68,11] z[68,12] z[68,13] z[68,14] z[68,15]
 z[69,8] z[69,9] z[69,10] z[69,11] z[69,12] z[69,13] z[69,14] z[69,15]
 z[70,8] z[70,9] z[70,10] z[70,11] z[70,12] z[70,13] z[70,14] z[70,15]
 z[71,8] z[71,9] z[71,10] z[71,11] z[71,12] z[71,13] z[71,14] z[71,15]
 z[72,8] z[72,9] z[72,10] z[72,11] z[72,12] z[72,13] z[72,14] z[72,15]
 z[73,8] z[73,9] z[73,10] z[73,11] z[73,12] z[73,13] z[73,14] z[73,15]
 z[74,8] z[74,9] z[74,10] z[74,11] z[74,12] z[74,13] z[74,14] z[74,15]
 z[75,8] z[75,9] z[75,10] z[75,11] z[75,12] z[75,13] z[75,14] z[75,15]
 z[76,8] z[76,9] z[76,10] z[76,11] z[76,12] z[76,13] z[76,14] z[76,15]
 z[77,8] z[77,9] z[77,10] z[77,11] z[77,12] z[77,13] z[77,14] z[77,15]
 z[78,8] z[78,9] z[78,10] z[78,11] z[78,12] z[78,13] z[78,14] z[78,15]
 z[79,8] z[79,9] z[79,10] z[79,11] z[79,12] z[79,13] z[79,14] z[79,15]
 z[80,8] z[80,9] z[80,10] z[80,11] z[80,12] z[80,13] z[80,14] z[80,15]
 z[81,8] z[81,9] z[81,10] z[81,11] z[81,12] z[81,13] z[81,14] z[81,15]
 z[82,8] z[82,9] z[82,10] z[82,11] z[82,12] z[82,13] z[82,14] z[82,15]
 z[83,8] z[83,9] z[83,10] z[83,11] z[83,12] z[83,13] z[83,14] z[83,15]
 z[84,8] z[84,9] z[84,10] z[84,11] z[84,12] z[84,13] z[84,14] z[84,15]
 z[85,8] z[85,9] z[85,10] z[85,11] z[85,12] z[85,13] z[85,14] z[85,15]
 z[86,8] z[86,9] z[86,10] z[86,11] z[86,12] z[86,13] z[86,14] z[86,15]
 z[87,8] z[87,9] z[87,10] z[87,11] z[87,12] z[87,13] z[87,14] z[87,15]
 z[88,8] z[88,9] z[88,10] z[88,11] z[88,12] z[88,13] z[88,14] z[88,15]
 z[89,8] z[89,9] z[89,10] z[89,11] z[89,12] z[89,13] z[89,14] z[89,15]
 z[90,8] z[90,9] z[90,10] z[90,11] z[90,12] z[90,13] z[90,14] z[90,15]
 z[91,8] z[91,9] z[91,10] z[91,11] z[91,12] z[91,13] z[91,14] z[91,15]
 z[92,8] z[92,9] z[92,10] z[92,11] z[92,12] z[92,13] z[92,14] z[92,15]
 z[93,8] z[93,9] z[93,10] z[93,11] z[93,12] z[93,13] z[93,14] z[93,15]
 z[94,8] z[94,9] z[94,10] z[94,11] z[94,12] z[94,13] z[94,14] z[94,15]
 z[95,8] z[95,9] z[95,10] z[95,11] z[95,12] z[95,13] z[95,14] z[95,15]
 z[96,8] z[96,9] z[96,10] z[96,11] z[96,12] z[96,13] z[96,14] z[96,15]
 z[97,8] z[97,9] z[97,10] z[97,11] z[97,12] z[97,13] z[97,14] z[97,15]
 z[98,8] z[98,9] z[98,10] z[98,11] z[98,12] z[98,13] z[98,14] z[98,15]
 z[99,8] z[99,9] z[99,10] z[99,11] z[99,12] z[99,13] z[99,14] z[99,15]
End
